(declare-fun Constructed_Argument_t () String)
(declare-fun Constructed_Argument_2_t () String)
(declare-fun CreateAsClass () Bool)
(assert (= Constructed_Argument_t (str.++ (seq.unit #x73) (seq.unit #x74) (seq.unit #x72) (seq.unit #x69) (seq.unit #x6e) (seq.unit #x67))))
(assert (= Constructed_Argument_2_t (str.++ (seq.unit #x73) (seq.unit #x74) (seq.unit #x72) (seq.unit #x69) (seq.unit #x6e) (seq.unit #x67))))
(assert CreateAsClass)
(check-sat)
